# Solution for model GasLib-40
# Objective value = 2.9840984264489833e+01
loadshed[innode_1] 0
loadshed[innode_2] 0
loadshed[innode_3] 0
loadshed[innode_4] 0
loadshed[innode_5] 0
loadshed[innode_6] 0
loadshed[innode_7] 0
loadshed[innode_8] 0
loadshed[source_1] -0.158400262350483
loadshed[source_2] 6.8188058991508482e-03
loadshed[source_3] 3.4034059258512839e-01
loadshed[sink_1] 0
loadshed[sink_2] 0
loadshed[sink_3] 0
loadshed[sink_4] 0
loadshed[sink_5] 0
loadshed[sink_6] 0
loadshed[sink_7] 0
loadshed[sink_8] 0
loadshed[sink_9] 0
loadshed[sink_10] 0
loadshed[sink_11] 0
loadshed[sink_12] 1
loadshed[sink_13] 0
loadshed[sink_14] 0
loadshed[sink_15] 0
loadshed[sink_16] 0
loadshed[sink_17] 0
loadshed[sink_18] 0
loadshed[sink_19] 0
loadshed[sink_20] 0
loadshed[sink_21] 8.2467164929364567e-01
loadshed[sink_22] 0
loadshed[sink_23] 0
loadshed[sink_24] 0
loadshed[sink_25] 0
loadshed[sink_26] 0
loadshed[sink_27] 0
loadshed[sink_28] 0
loadshed[sink_29] 0
flow[source_1,sink_3] 1.8313181925283851e+02
flow[innode_1,sink_16] 1.6354166666666970e+01
flow[innode_6,sink_13] 1.0193427709725810e+01
flow[sink_13,sink_14] -6.1607389569408575e+00
flow[sink_14,sink_10] -2.2514905623607774e+01
flow[sink_25,sink_26] 9.8125000000000341e+01
flow[sink_26,sink_9] 8.1770833333333655e+01
flow[sink_9,sink_18] 6.5416666666666671e+01
flow[sink_26,sink_4] 0
flow[sink_4,sink_20] -4.9572478898547423e+01
flow[sink_18,sink_6] 4.9062500000000313e+01
flow[sink_25,innode_8] -1.5042348591950216e+02
flow[sink_6,sink_7] 0
flow[sink_6,sink_22] 3.2708333333333641e+01
flow[sink_7,sink_24] 1.9221515735510177e+01
flow[sink_22,sink_1] 1.6354166666666970e+01
flow[sink_24,sink_21] 2.8673490688435042e+00
flow[sink_21,sink_12] 0
flow[sink_7,sink_5] -3.5575682402176852e+01
flow[sink_5,sink_17] -5.1929849068843524e+01
flow[sink_17,sink_4] -3.3218312231880759e+01
flow[sink_17,sink_8] -3.5065703503629436e+01
flow[sink_3,sink_23] 16.3541666666697
flow[sink_8,sink_20] -51.4198701702961
flow[sink_25,sink_20] 1.1734651573551022e+02
flow[sink_25,sink_15] -9.1595624192400365e+01
flow[sink_15,sink_29] -6.0477149411072823e+01
flow[sink_29,sink_28] 1.6354166666667879e+01
flow[sink_29,sink_2] 6.3826808114660885e+01
flow[sink_2,sink_15] 4.7472641447994221e+01
flow[sink_29,innode_7] -1.5701229085906826e+02
flow[innode_4,sink_19] 3.9806656249942264e+01
flow[sink_19,innode_3] 0
flow[innode_4,innode_5] 6.4479082706999066e+01
flow[sink_27,innode_5] -6.4479082706999066e+01
flow[sink_27,sink_19] 4.8124916040332394e+01
flow[sink_10,sink_11] 3.2708333333333641e+01
flow[sink_10,innode_2] -7.1577405623607916e+01
flow[sink_10,innode_3] 0
flow[innode_6,sink_25] -1.0193427709725810e+01
flow[sink_11,innode_1] 1.6354166666666970e+01
flow[sink_19,innode_2] 7.1577405623607916e+01
flow[source_3,innode_4] 1.0428573895694133e+02
flow[source_2,innode_7] 1.5701229085906826e+02
flow[sink_3,innode_8] 1.5042348591950216e+02
pressure[innode_1] 7.5465718108198118e+01
pressure[innode_2] 7.9400580927376623e+01
pressure[innode_3] 7.5617419415801663e+01
pressure[innode_4] 81.01325
pressure[innode_5] 8.0968897886921567e+01
pressure[innode_6] 7.4597665490361010e+01
pressure[innode_7] 81.01325
pressure[innode_8] 8.0401110287128446e+01
pressure[source_1] 81.01325
pressure[source_2] 81.01325
pressure[source_3] 81.01325
pressure[sink_1] 57.0144215324208
pressure[sink_2] 7.5196981231996347e+01
pressure[sink_3] 8.0401110287128446e+01
pressure[sink_4] 4.2985747391067669e+01
pressure[sink_5] 3.7847854635665314e+01
pressure[sink_6] 5.9115499142808176e+01
pressure[sink_7] 2.3052206526847279e+01
pressure[sink_8] 4.3039373123213430e+01
pressure[sink_9] 6.2792583946266461e+01
pressure[sink_10] 7.5617419415801663e+01
pressure[sink_11] 7.5465718108198118e+01
pressure[sink_12] 1.01325
pressure[sink_13] 7.4541470826877315e+01
pressure[sink_14] 7.4552495994019679e+01
pressure[sink_15] 75.0419935204703
pressure[sink_16] 7.4444068273380438e+01
pressure[sink_17] 4.1716253031563923e+01
pressure[sink_18] 6.0425613971067804e+01
pressure[sink_19] 7.9400580927376623e+01
pressure[sink_20] 4.6622614942511937e+01
pressure[sink_21] 1.01325
pressure[sink_22] 5.8078190674775811e+01
pressure[sink_23] 8.0236392275468660e+01
pressure[sink_24] 1.0450032268524319e+00
pressure[sink_25] 7.4597665490361010e+01
pressure[sink_26] 6.7686779365977813e+01
pressure[sink_27] 8.0433840644987413e+01
pressure[sink_28] 76.5185040408455
pressure[sink_29] 7.6813786314462675e+01
interdiction[source_1,sink_3] 0
interdiction[innode_1,sink_16] 0
interdiction[innode_6,sink_13] 0
interdiction[sink_13,sink_14] 0
interdiction[sink_14,sink_10] 0
interdiction[sink_25,sink_26] 0
interdiction[sink_26,sink_9] 0
interdiction[sink_9,sink_18] 0
interdiction[sink_26,sink_4] 1
interdiction[sink_4,sink_20] 0
interdiction[sink_18,sink_6] 0
interdiction[sink_25,innode_8] 0
interdiction[sink_6,sink_7] 1
interdiction[sink_6,sink_22] 0
interdiction[sink_7,sink_24] 0
interdiction[sink_22,sink_1] 0
interdiction[sink_24,sink_21] 0
interdiction[sink_21,sink_12] 0
interdiction[sink_7,sink_5] 0
interdiction[sink_5,sink_17] 0
interdiction[sink_17,sink_4] 0
interdiction[sink_17,sink_8] 0
interdiction[sink_3,sink_23] 0
interdiction[sink_8,sink_20] 0
interdiction[sink_25,sink_20] 0
interdiction[sink_25,sink_15] 0
interdiction[sink_15,sink_29] 0
interdiction[sink_29,sink_28] 0
interdiction[sink_29,sink_2] 0
interdiction[sink_2,sink_15] 0
interdiction[sink_29,innode_7] 0
interdiction[innode_4,sink_19] 0
interdiction[sink_19,innode_3] 1
interdiction[innode_4,innode_5] 0
interdiction[sink_27,innode_5] 0
interdiction[sink_27,sink_19] 0
interdiction[sink_10,sink_11] 0
interdiction[sink_10,innode_2] 0
interdiction[sink_10,innode_3] 0
interdiction[innode_6,sink_25] 0
interdiction[sink_11,innode_1] 0
interdiction[sink_19,innode_2] 0
interdiction[source_3,innode_4] 0
interdiction[source_2,innode_7] 0
interdiction[sink_3,innode_8] 0
WCcheckFlow[source_1,sink_3] 39
WCcheckFlow[innode_1,sink_16] 1
WCcheckFlow[innode_6,sink_13] 13
WCcheckFlow[sink_13,sink_14] 12
WCcheckFlow[sink_14,sink_10] 11
WCcheckFlow[sink_25,sink_26] 6
WCcheckFlow[sink_26,sink_9] 5
WCcheckFlow[sink_9,sink_18] 4
WCcheckFlow[sink_26,sink_4] 0
WCcheckFlow[sink_4,sink_20] -8
WCcheckFlow[sink_18,sink_6] 3
WCcheckFlow[sink_25,innode_8] -36
WCcheckFlow[sink_6,sink_7] 0
WCcheckFlow[sink_6,sink_22] 2
WCcheckFlow[sink_7,sink_24] 3
WCcheckFlow[sink_22,sink_1] 1
WCcheckFlow[sink_24,sink_21] 2
WCcheckFlow[sink_21,sink_12] 1
WCcheckFlow[sink_7,sink_5] -4
WCcheckFlow[sink_5,sink_17] -5
WCcheckFlow[sink_17,sink_4] -7
WCcheckFlow[sink_17,sink_8] 1
WCcheckFlow[sink_3,sink_23] 1
WCcheckFlow[sink_8,sink_20] 0
WCcheckFlow[sink_25,sink_20] 9
WCcheckFlow[sink_25,sink_15] 6
WCcheckFlow[sink_15,sink_29] 5
WCcheckFlow[sink_29,sink_28] 1
WCcheckFlow[sink_29,sink_2] 1
WCcheckFlow[sink_2,sink_15] 0
WCcheckFlow[sink_29,innode_7] 2
WCcheckFlow[innode_4,sink_19] -4
WCcheckFlow[sink_19,innode_3] 0
WCcheckFlow[innode_4,innode_5] 2
WCcheckFlow[sink_27,innode_5] -1
WCcheckFlow[sink_27,sink_19] 0
WCcheckFlow[sink_10,sink_11] 3
WCcheckFlow[sink_10,innode_2] 6
WCcheckFlow[sink_10,innode_3] 1
WCcheckFlow[innode_6,sink_25] -14
WCcheckFlow[sink_11,innode_1] 2
WCcheckFlow[sink_19,innode_2] -5
WCcheckFlow[source_3,innode_4] -1
WCcheckFlow[source_2,innode_7] -1
WCcheckFlow[sink_3,innode_8] 37
